DATASET = "thpack8";
INSTANCE = "006";

WIDTH = 2400;
HEIGHT = 1000;
LENGTH = 3500;

NO_OF_SHAPES = 8;
size = [|
  400,375,250 |
  400,275,225 |
  300,250,125 |
  500,450,225 |
  1500,275,200 |
  600,400,300 |
  900,200,200 |
  700,350,300 |
|];

verticality = [|
  0,0,1 |
  0,0,1 |
  0,0,1 |
  0,0,1 |
  0,0,1 |
  0,0,1 |
  0,0,1 |
  0,0,1 |
|];

box_count = [
  34,
  37,
  23,
  27,
  25,
  23,
  14,
  17,
];
